&CONTROL
    calculation  = 'vc-relax'
    restart_mode = 'from_scratch'
    prefix       = 'tial'
    pseudo_dir   = './pseudopotentials/' ! Assumes UPF files are in a 'pseudopotentials' sub-folder
    outdir       = './out/'
    nstep        = 150                 ! Increased steps to ensure full convergence
/

&SYSTEM
    ibrav     = 0
    nat       = 2
    ntyp      = 2
    ecutwfc   = 40
    ecutrho   = 400
    occupations = 'smearing'             ! Smearing enabled for metallic system
    smearing    = 'methfessel-paxton'    ! Robust smearing method
    degauss     = 0.01                   ! Standard smearing width
/

&ELECTRONS
    mixing_mode = 'plain'
    mixing_beta = 0.7
    conv_thr    = 1.0e-8
/

&IONS
/

&CELL
/

ATOMIC_SPECIES
  Ti  47.867  ti_pbe_v1.4.uspp.F.UPF
  Al  26.982  Al.pbe-n-kjpaw_psl.1.0.0.UPF

CELL_PARAMETERS {angstrom}
   4.0080000000    0.0000000000    0.0000000000
   0.0000000000    4.0080000000    0.0000000000
   0.0000000000    0.0000000000    4.0750000000

ATOMIC_POSITIONS {crystal}
   Ti   0.0000000000   0.0000000000   0.0000000000
   Al   0.5000000000   0.5000000000   0.5000000000

K_POINTS {automatic}
  6 6 6 0 0 0
